row=6;
column=6;
Board=[|6,3,1,2,4,5|4,6,3,5,2,1|2,5,6,3,1,4|5,4,2,1,3,6|3,1,5,4,6,2|1,2,4,6,5,3|];
horizontal=[|1,1,-1,0,0|0,1,0,1,1|0,0,1,1,0|1,1,1,0,0|1,0,1,-1,1|0,0,0,1,1|];
vertical=[|1,0,0,0,1,1|1,1,0,1,1,0|0,1,1,1,0,0|1,1,0,0,0,1|-1,0,1,0,1,0|];
